# Solution for model r5_t9_m6_8
# Finished Task: 7 / 9
# Makespan: 497.0, Total Distance: 155.0, Total Time: 0.9943
# R O S F
0 0 7 269.0 269.0
1 1 11 200.0 200.0
2 2 -1 227.0 227.0
3 3 8 285.0 285.0
4 4 9 275.0 275.0
5 4 -1 434.0 455.0
6 -1 -1 477.0 506.0
7 0 13 338.0 373.0
8 3 -1 358.0 387.0
9 4 5 387.0 421.0
10 -1 -1 455.0 477.0
11 1 12 421.0 452.0
12 1 -1 471.0 497.0
13 0 -1 386.0 423.0
